c User generated cnf file
p cnf 14 17
10 7 -3 0 
1 -1 14 0 
10 5 -1 0 
12 -1 5 0 
3 -10 5 0 
12 -14 2 0 
9 -7 7 0 
12 7 -6 0 
14 1 -13 0 
1 6 -3 0 
14 -14 1 0 
14 4 -4 0 
6 -9 13 0 
13 8 -9 0 
2 -14 14 0 
8 7 -2 0 
10 5 -8 0 
